%chk=hf.chk
%mem=10GB
# p HF/6-31g(d) iop(6/33=2,6/41=10,6/42=17) pop=(mk,readradii) scf=tight
hf

0 1
0  1
C           1.06720        -0.04599        -0.01121
C           2.58785        -0.07121        -0.02775
O           3.06941        -0.24640         1.30051
C           3.12302        -1.19056        -0.90759
H           0.70553         0.75598         0.64100
H           0.66237        -0.98277         0.38764
H           0.66231         0.11046        -1.01564
H           2.96590         0.89101        -0.38942
H           2.73791        -1.09976         1.62980
H           2.79443        -2.16974        -0.54195
H           4.21793        -1.19938        -0.89048
H           2.79012        -1.07410        -1.94340

